BAYES
144
2 2 2 2 2 2 2 2 2 2 2 2 2 2 2 2 2 2 2 2 2 2 2 2 2 2 2 2 2 2 2 2 2 2 2 2 2 2 2 2 2 2 2 2 2 2 2 2 2 2 2 2 2 2 2 2 2 2 2 2 2 2 2 2 2 2 2 2 2 2 2 2 2 2 2 2 2 2 2 2 2 2 2 2 2 2 2 2 2 2 2 2 2 2 2 2 2 2 2 2 2 2 2 2 2 2 2 2 2 2 2 2 2 2 2 2 2 2 2 2 2 2 2 2 2 2 2 2 2 2 2 2 2 2 2 2 2 2 2 2 2 2 2 2
144
1 0
2 0 1
2 1 2
2 2 3
2 3 4
2 4 5
2 5 6
2 6 7
2 7 8
2 8 9
2 9 10
2 10 11
2 0 12
3 1 12 13
3 2 13 14
3 3 14 15
3 4 15 16
3 5 16 17
3 6 17 18
3 7 18 19
3 8 19 20
3 9 20 21
3 10 21 22
3 11 22 23
2 12 24
3 13 24 25
3 14 25 26
3 15 26 27
3 16 27 28
3 17 28 29
3 18 29 30
3 19 30 31
3 20 31 32
3 21 32 33
3 22 33 34
3 23 34 35
2 24 36
3 25 36 37
3 26 37 38
3 27 38 39
3 28 39 40
3 29 40 41
3 30 41 42
3 31 42 43
3 32 43 44
3 33 44 45
3 34 45 46
3 35 46 47
2 36 48
3 37 48 49
3 38 49 50
3 39 50 51
3 40 51 52
3 41 52 53
3 42 53 54
3 43 54 55
3 44 55 56
3 45 56 57
3 46 57 58
3 47 58 59
2 48 60
3 49 60 61
3 50 61 62
3 51 62 63
3 52 63 64
3 53 64 65
3 54 65 66
3 55 66 67
3 56 67 68
3 57 68 69
3 58 69 70
3 59 70 71
2 60 72
3 61 72 73
3 62 73 74
3 63 74 75
3 64 75 76
3 65 76 77
3 66 77 78
3 67 78 79
3 68 79 80
3 69 80 81
3 70 81 82
3 71 82 83
2 72 84
3 73 84 85
3 74 85 86
3 75 86 87
3 76 87 88
3 77 88 89
3 78 89 90
3 79 90 91
3 80 91 92
3 81 92 93
3 82 93 94
3 83 94 95
2 84 96
3 85 96 97
3 86 97 98
3 87 98 99
3 88 99 100
3 89 100 101
3 90 101 102
3 91 102 103
3 92 103 104
3 93 104 105
3 94 105 106
3 95 106 107
2 96 108
3 97 108 109
3 98 109 110
3 99 110 111
3 100 111 112
3 101 112 113
3 102 113 114
3 103 114 115
3 104 115 116
3 105 116 117
3 106 117 118
3 107 118 119
2 108 120
3 109 120 121
3 110 121 122
3 111 122 123
3 112 123 124
3 113 124 125
3 114 125 126
3 115 126 127
3 116 127 128
3 117 128 129
3 118 129 130
3 119 130 131
2 120 132
3 121 132 133
3 122 133 134
3 123 134 135
3 124 135 136
3 125 136 137
3 126 137 138
3 127 138 139
3 128 139 140
3 129 140 141
3 130 141 142
3 131 142 143

2
0.0795393 0.920461
4
1.0 0.0 0.0 1.0
4
1.0 0.0 0.0 1.0
4
0.0 1.0 1.0 0.0
4
0.464228 0.535772 0.111738 0.888262
4
0.0 1.0 1.0 0.0
4
0.0 1.0 1.0 0.0
4
1.0 0.0 0.0 1.0
4
1.0 0.0 0.0 1.0
4
0.0 1.0 1.0 0.0
4
1.0 0.0 0.0 1.0
4
0.0 1.0 1.0 0.0
4
0.432154 0.567846 0.694382 0.305618
8
1.0 0.0 0.0 1.0 1.0 0.0 0.0 1.0
8
1.0 0.0 0.0 1.0 0.0 1.0 0.0 1.0
8
0.0 1.0 1.0 0.0 1.0 0.0 1.0 0.0
8
0.544664 0.455336 0.390046 0.609954 0.13145 0.86855 0.40271 0.59729
8
0.66727 0.33273 0.179364 0.820636 0.94223 0.0577701 0.409152 0.590848
8
0.0 1.0 0.0 1.0 1.0 0.0 1.0 0.0
8
0.0685336 0.931466 0.524377 0.475623 0.601745 0.398255 0.628622 0.371378
8
1.0 0.0 0.0 1.0 1.0 0.0 1.0 0.0
8
1.0 0.0 1.0 0.0 0.0 1.0 0.0 1.0
8
1.0 0.0 0.0 1.0 1.0 0.0 1.0 0.0
8
1.0 0.0 0.0 1.0 0.0 1.0 0.0 1.0
4
1.0 0.0 0.0 1.0
8
0.558067 0.441933 0.337671 0.662329 0.936469 0.0635308 0.626601 0.373399
8
1.0 0.0 0.0 1.0 1.0 0.0 0.0 1.0
8
0.0 1.0 1.0 0.0 1.0 0.0 0.0 1.0
8
1.0 0.0 0.0 1.0 0.0 1.0 1.0 0.0
8
1.0 0.0 0.0 1.0 0.0 1.0 0.0 1.0
8
1.0 0.0 1.0 0.0 1.0 0.0 0.0 1.0
8
0.0 1.0 0.0 1.0 0.0 1.0 1.0 0.0
8
0.0 1.0 0.0 1.0 1.0 0.0 0.0 1.0
8
1.0 0.0 0.0 1.0 0.0 1.0 1.0 0.0
8
1.0 0.0 0.0 1.0 1.0 0.0 1.0 0.0
8
0.0 1.0 0.0 1.0 1.0 0.0 1.0 0.0
4
1.0 0.0 0.0 1.0
8
0.0 1.0 0.0 1.0 1.0 0.0 0.0 1.0
8
0.0 1.0 1.0 0.0 1.0 0.0 0.0 1.0
8
0.152097 0.847903 0.31892 0.68108 0.722241 0.277759 0.256047 0.743953
8
1.0 0.0 1.0 0.0 1.0 0.0 0.0 1.0
8
0.0 1.0 1.0 0.0 1.0 0.0 1.0 0.0
8
0.0 1.0 0.0 1.0 1.0 0.0 0.0 1.0
8
1.0 0.0 0.0 1.0 0.0 1.0 0.0 1.0
8
1.0 0.0 0.0 1.0 0.0 1.0 0.0 1.0
8
1.0 0.0 0.0 1.0 0.0 1.0 0.0 1.0
8
1.0 0.0 1.0 0.0 1.0 0.0 0.0 1.0
8
0.0 1.0 1.0 0.0 1.0 0.0 0.0 1.0
4
0.727039 0.272961 0.132306 0.867694
8
0.377807 0.622193 0.825007 0.174993 0.174221 0.825779 0.386557 0.613443
8
1.0 0.0 1.0 0.0 0.0 1.0 1.0 0.0
8
0.233581 0.766419 0.842909 0.157091 0.628603 0.371397 0.140671 0.859329
8
0.0 1.0 0.0 1.0 0.0 1.0 1.0 0.0
8
0.0 1.0 1.0 0.0 1.0 0.0 1.0 0.0
8
1.0 0.0 0.0 1.0 1.0 0.0 1.0 0.0
8
0.0 1.0 1.0 0.0 0.0 1.0 1.0 0.0
8
1.0 0.0 0.0 1.0 0.0 1.0 1.0 0.0
8
1.0 0.0 1.0 0.0 0.0 1.0 0.0 1.0
8
1.0 0.0 0.0 1.0 1.0 0.0 1.0 0.0
8
0.0 1.0 1.0 0.0 1.0 0.0 1.0 0.0
4
0.0 1.0 1.0 0.0
8
0.0 1.0 1.0 0.0 0.0 1.0 1.0 0.0
8
0.0 1.0 1.0 0.0 1.0 0.0 0.0 1.0
8
0.0 1.0 0.0 1.0 1.0 0.0 0.0 1.0
8
0.0 1.0 0.0 1.0 0.0 1.0 1.0 0.0
8
1.0 0.0 0.0 1.0 0.0 1.0 0.0 1.0
8
0.238441 0.761559 0.0216542 0.978346 0.777659 0.222341 0.860034 0.139966
8
1.0 0.0 1.0 0.0 1.0 0.0 0.0 1.0
8
1.0 0.0 1.0 0.0 0.0 1.0 1.0 0.0
8
1.0 0.0 1.0 0.0 0.0 1.0 1.0 0.0
8
0.0495385 0.950462 0.389764 0.610236 0.594085 0.405915 0.614491 0.385509
8
1.0 0.0 0.0 1.0 1.0 0.0 1.0 0.0
4
1.0 0.0 0.0 1.0
8
0.473076 0.526924 0.317473 0.682527 0.853032 0.146968 0.825003 0.174997
8
0.0 1.0 1.0 0.0 1.0 0.0 0.0 1.0
8
0.0 1.0 0.0 1.0 1.0 0.0 0.0 1.0
8
0.0 1.0 1.0 0.0 1.0 0.0 1.0 0.0
8
1.0 0.0 0.0 1.0 1.0 0.0 1.0 0.0
8
1.0 0.0 0.0 1.0 1.0 0.0 1.0 0.0
8
1.0 0.0 1.0 0.0 1.0 0.0 0.0 1.0
8
0.0 1.0 0.0 1.0 1.0 0.0 0.0 1.0
8
1.0 0.0 0.0 1.0 1.0 0.0 1.0 0.0
8
1.0 0.0 0.0 1.0 1.0 0.0 0.0 1.0
8
0.0 1.0 1.0 0.0 0.0 1.0 1.0 0.0
4
1.0 0.0 0.0 1.0
8
0.0 1.0 1.0 0.0 1.0 0.0 1.0 0.0
8
0.0 1.0 1.0 0.0 1.0 0.0 0.0 1.0
8
0.0 1.0 1.0 0.0 1.0 0.0 1.0 0.0
8
0.909424 0.0905762 0.790974 0.209026 0.0256204 0.97438 0.444555 0.555445
8
1.0 0.0 0.0 1.0 1.0 0.0 0.0 1.0
8
0.977858 0.022142 0.463544 0.536456 0.636977 0.363023 0.470851 0.529149
8
0.0 1.0 1.0 0.0 1.0 0.0 1.0 0.0
8
1.0 0.0 0.0 1.0 1.0 0.0 1.0 0.0
8
1.0 0.0 0.0 1.0 0.0 1.0 0.0 1.0
8
1.0 0.0 1.0 0.0 1.0 0.0 0.0 1.0
8
1.0 0.0 1.0 0.0 0.0 1.0 0.0 1.0
4
1.0 0.0 0.0 1.0
8
1.0 0.0 1.0 0.0 0.0 1.0 0.0 1.0
8
1.0 0.0 0.0 1.0 1.0 0.0 1.0 0.0
8
1.0 0.0 0.0 1.0 1.0 0.0 0.0 1.0
8
0.86809 0.13191 0.128862 0.871138 0.0384672 0.961533 0.959537 0.0404634
8
1.0 0.0 1.0 0.0 0.0 1.0 0.0 1.0
8
0.0 1.0 1.0 0.0 0.0 1.0 0.0 1.0
8
1.0 0.0 1.0 0.0 0.0 1.0 1.0 0.0
8
0.0 1.0 1.0 0.0 0.0 1.0 1.0 0.0
8
1.0 0.0 0.0 1.0 0.0 1.0 0.0 1.0
8
1.0 0.0 0.0 1.0 1.0 0.0 1.0 0.0
8
0.987478 0.0125216 0.680726 0.319274 0.0462889 0.953711 0.424773 0.575227
4
0.0 1.0 1.0 0.0
8
0.0 1.0 0.0 1.0 1.0 0.0 0.0 1.0
8
0.0 1.0 1.0 0.0 1.0 0.0 1.0 0.0
8
0.0 1.0 1.0 0.0 0.0 1.0 0.0 1.0
8
1.0 0.0 0.0 1.0 1.0 0.0 1.0 0.0
8
1.0 0.0 0.0 1.0 1.0 0.0 0.0 1.0
8
0.0 1.0 0.0 1.0 1.0 0.0 1.0 0.0
8
0.0 1.0 1.0 0.0 1.0 0.0 1.0 0.0
8
1.0 0.0 0.0 1.0 0.0 1.0 0.0 1.0
8
1.0 0.0 0.0 1.0 1.0 0.0 0.0 1.0
8
0.0 1.0 1.0 0.0 0.0 1.0 1.0 0.0
8
0.0 1.0 1.0 0.0 1.0 0.0 0.0 1.0
4
0.0 1.0 1.0 0.0
8
0.0 1.0 1.0 0.0 1.0 0.0 1.0 0.0
8
0.0 1.0 0.0 1.0 1.0 0.0 1.0 0.0
8
1.0 0.0 0.0 1.0 1.0 0.0 1.0 0.0
8
1.0 0.0 0.0 1.0 1.0 0.0 1.0 0.0
8
0.741145 0.258855 0.905148 0.0948522 0.461716 0.538284 0.32761 0.67239
8
1.0 0.0 0.0 1.0 0.0 1.0 0.0 1.0
8
0.0 1.0 1.0 0.0 1.0 0.0 1.0 0.0
8
1.0 0.0 1.0 0.0 1.0 0.0 0.0 1.0
8
1.0 0.0 0.0 1.0 1.0 0.0 0.0 1.0
8
1.0 0.0 0.0 1.0 1.0 0.0 1.0 0.0
8
1.0 0.0 1.0 0.0 1.0 0.0 0.0 1.0
4
1.0 0.0 0.0 1.0
8
1.0 0.0 0.0 1.0 1.0 0.0 1.0 0.0
8
0.0 1.0 0.0 1.0 0.0 1.0 1.0 0.0
8
1.0 0.0 0.0 1.0 0.0 1.0 1.0 0.0
8
0.0 1.0 1.0 0.0 1.0 0.0 0.0 1.0
8
0.0 1.0 1.0 0.0 0.0 1.0 1.0 0.0
8
0.0 1.0 1.0 0.0 0.0 1.0 1.0 0.0
8
1.0 0.0 0.0 1.0 0.0 1.0 0.0 1.0
8
0.968375 0.0316247 0.235408 0.764592 0.00892923 0.991071 0.0257174 0.974283
8
1.0 0.0 1.0 0.0 0.0 1.0 1.0 0.0
8
0.0 1.0 0.0 1.0 0.0 1.0 1.0 0.0
8
1.0 0.0 1.0 0.0 1.0 0.0 0.0 1.0